c File: instances/26_0.25_3.col
c
c Description: Random graph of size 26 vertices and P(0.25) of edges between any two vertices.
p col 26 325
e 1 3
e 1 6
e 1 7
e 1 14
e 1 22
e 1 23
e 1 25
e 2 11
e 2 17
e 2 21
e 2 25
e 3 7
e 3 11
e 4 11
e 4 22
e 5 17
e 5 18
e 5 22
e 5 25
e 6 15
e 7 16
e 7 19
e 7 20
e 7 22
e 8 13
e 8 14
e 8 17
e 8 23
e 8 26
e 9 16
e 9 18
e 9 21
e 9 23
e 10 13
e 10 17
e 10 22
e 10 23
e 10 26
e 11 16
e 12 17
e 12 25
e 12 26
e 13 14
e 13 18
e 13 21
e 13 26
e 14 15
e 14 21
e 14 22
e 14 24
e 15 16
e 15 19
e 15 20
e 16 20
e 16 21
e 16 23
e 16 24
e 16 25
e 17 19
e 17 22
e 17 23
e 19 23
e 20 21
e 20 23
e 20 24
e 20 25
e 21 24
e 22 25
e 23 24
e 23 25